
Gurobi 10.0.2 (win64, gurobi_cl) logging started Wed May 27 22:42:48 2026

Set parameter LogFile to value "gurobi.log"

Gurobi 10.0.2 (win64, gurobi_cl) logging started Thu May 28 11:11:00 2026

Set parameter LogFile to value "gurobi.log"

Gurobi 10.0.2 (win64, gurobi_cl) logging started Thu May 28 11:12:19 2026

Set parameter Username
Set parameter LogFile to value "gurobi.log"
